477
1 0 5 451 1 468 1 467 1 466 1 465 1
2 0 5 300 1 237 1 333 1 10 1 85 1
3 0 5 264 1 83 1 61 1 364 1 302 1
4 0 5 446 1 34 1 331 1 174 1 115 1
5 0 5 274 1 88 1 258 1 320 1 161 1
6 0 5 178 1 114 1 238 1 192 1 38 1
7 0 5 241 1 107 1 385 1 213 1 337 1
8 0 5 45 1 35 1 76 1 168 1 148 1
9 0 5 304 1 113 1 26 1 316 1 393 1
10 0 5 412 1 199 1 22 1 300 1 56 1
11 0 5 407 1 30 1 106 1 172 1 387 1
12 0 5 39 1 335 1 74 1 359 1 49 1
13 0 5 311 1 272 1 437 1 417 1 344 1
14 0 5 441 1 262 1 72 1 390 1 7 1
15 0 5 199 1 412 1 172 1 300 1 85 1
16 0 5 160 1 125 1 30 1 357 1 106 1
17 0 5 223 1 329 1 414 1 33 1 192 1
18 0 5 433 1 181 1 242 1 345 1 431 1
19 0 5 270 1 197 1 139 1 98 1 308 1
20 0 5 105 1 255 1 197 1 45 1 270 1
21 0 5 427 1 184 1 293 1 80 1 124 1
22 0 5 56 1 61 1 10 1 300 1 412 1
23 0 5 221 1 136 1 135 1 252 1 432 1
24 0 5 296 1 380 1 281 1 235 1 388 1
25 0 5 292 1 213 1 200 1 421 1 340 1
26 0 5 338 1 9 1 248 1 48 1 283 1
27 0 5 29 1 356 1 397 1 251 1 144 1
28 0 5 412 1 457 1 465 1 464 1 463 1
29 0 5 27 1 397 1 251 1 356 1 144 1
30 0 5 160 1 11 1 407 1 16 1 357 1
31 0 5 302 1 258 1 264 1 97 1 398 1
32 0 5 93 1 130 1 352 1 118 1 381 1
33 0 5 305 1 58 1 17 1 414 1 223 1
34 0 5 331 1 4 1 175 1 446 1 315 1
35 0 5 8 1 334 1 136 1 170 1 252 1
36 0 5 216 1 191 1 37 1 130 1 372 1
37 0 5 372 1 130 1 36 1 230 1 288 1
38 0 5 385 1 72 1 337 1 7 1 107 1
39 0 5 12 1 282 1 74 1 111 1 370 1
40 0 5 238 1 379 1 250 1 114 1 339 1
41 0 5 232 1 202 1 234 1 398 1 31 1
42 0 5 77 1 167 1 286 1 368 1 62 1
43 0 5 70 1 115 1 315 1 52 1 99 1
44 0 5 395 1 95 1 226 1 110 1 205 1
45 0 5 8 1 76 1 236 1 20 1 175 1
46 0 5 249 1 247 1 273 1 404 1 51 1
47 0 5 182 1 342 1 173 1 62 1 368 1
48 0 5 208 1 283 1 338 1 77 1 193 1
49 0 5 291 1 425 1 275 1 356 1 335 1
50 0 5 362 1 200 1 399 1 306 1 241 1
51 0 5 404 1 123 1 60 1 354 1 73 1
52 0 5 186 1 90 1 115 1 66 1 43 1
53 0 5 149 1 155 1 394 1 207 1 145 1
54 0 5 312 1 313 1 87 1 81 1 386 1
55 0 5 227 1 206 1 103 1 176 1 260 1
56 0 5 333 1 22 1 300 1 61 1 279 1
57 0 5 299 1 95 1 325 1 67 1 230 1
58 0 5 389 1 189 1 33 1 305 1 373 1
59 0 5 129 1 228 1 359 1 140 1 69 1
60 0 5 123 1 354 1 227 1 51 1 146 1
61 0 5 22 1 3 1 83 1 56 1 333 1
62 0 5 167 1 286 1 368 1 157 1 42 1
63 0 5 391 1 355 1 318 1 179 1 367 1
64 0 5 336 1 369 1 382 1 285 1 269 1
65 0 5 290 1 163 1 378 1 147 1 165 1
66 0 5 120 1 99 1 52 1 162 1 70 1
67 0 5 299 1 230 1 95 1 57 1 110 1
68 0 5 429 1 391 1 307 1 355 1 63 1
69 0 5 228 1 140 1 327 1 59 1 425 1
70 0 5 99 1 342 1 43 1 66 1 443 1
71 0 5 377 1 436 1 295 1 285 1 104 1
72 0 5 390 1 441 1 38 1 14 1 385 1
73 0 5 354 1 341 1 249 1 51 1 404 1
74 0 5 335 1 111 1 39 1 275 1 370 1
75 0 5 164 1 82 1 276 1 348 1 196 1
76 0 5 148 1 45 1 175 1 122 1 8 1
77 0 5 42 1 208 1 167 1 368 1 48 1
78 0 5 267 1 426 1 435 1 324 1 239 1
79 0 5 365 1 170 1 210 1 334 1 80 1
80 0 5 374 1 252 1 170 1 79 1 394 1
81 0 5 313 1 312 1 54 1 310 1 155 1
82 0 5 321 1 276 1 75 1 164 1 198 1
83 0 5 364 1 3 1 264 1 61 1 229 1
84 0 5 257 1 193 1 268 1 283 1 289 1
85 0 5 237 1 201 1 86 1 300 1 279 1
86 0 5 430 1 85 1 279 1 237 1 358 1
87 0 5 312 1 54 1 384 1 428 1 440 1
88 0 5 274 1 320 1 5 1 258 1 398 1
89 0 5 151 1 205 1 240 1 395 1 226 1
90 0 5 162 1 52 1 183 1 409 1 186 1
91 0 5 438 1 251 1 101 1 273 1 411 1
92 0 5 303 1 158 1 259 1 63 1 355 1
93 0 5 381 1 32 1 240 1 118 1 352 1
94 0 5 297 1 188 1 152 1 267 1 78 1
95 0 5 57 1 44 1 67 1 299 1 325 1
96 0 5 142 1 405 1 447 1 121 1 384 1
97 0 5 229 1 363 1 302 1 31 1 364 1
98 0 5 434 1 408 1 255 1 270 1 19 1
99 0 5 70 1 120 1 66 1 443 1 342 1
100 0 5 400 1 366 1 220 1 109 1 119 1
101 0 5 438 1 386 1 91 1 273 1 313 1
102 0 5 436 1 344 1 295 1 371 1 285 1
103 0 5 206 1 304 1 260 1 403 1 137 1
104 0 5 285 1 369 1 377 1 64 1 71 1
105 0 5 20 1 197 1 432 1 136 1 270 1
106 0 5 387 1 172 1 11 1 345 1 357 1
107 0 5 337 1 385 1 7 1 241 1 306 1
108 0 5 141 1 203 1 410 1 131 1 407 1
109 0 5 424 1 400 1 426 1 100 1 18 1
110 0 5 205 1 352 1 44 1 67 1 240 1
111 0 5 282 1 370 1 74 1 39 1 328 1
112 0 5 383 1 351 1 283 1 239 1 246 1
113 0 5 304 1 393 1 9 1 401 1 419 1
114 0 5 238 1 198 1 6 1 390 1 298 1
115 0 5 315 1 43 1 4 1 52 1 331 1
116 0 5 271 1 195 1 439 1 219 1 139 1
117 0 5 246 1 442 1 263 1 383 1 351 1
118 0 5 211 1 32 1 319 1 93 1 215 1
119 0 5 366 1 220 1 263 1 100 1 445 1
120 0 5 66 1 99 1 443 1 309 1 171 1
121 0 5 440 1 327 1 428 1 140 1 96 1
122 0 5 148 1 173 1 168 1 182 1 76 1
123 0 5 51 1 60 1 354 1 404 1 73 1
124 0 5 184 1 293 1 21 1 394 1 190 1
125 0 5 357 1 160 1 433 1 16 1 106 1
126 0 5 152 1 177 1 239 1 267 1 351 1
127 0 5 144 1 247 1 217 1 397 1 29 1
128 0 5 360 1 169 1 311 1 409 1 343 1
129 0 5 59 1 326 1 328 1 359 1 396 1
130 0 5 37 1 32 1 352 1 36 1 230 1
131 0 5 410 1 361 1 108 1 225 1 196 1
132 0 5 348 1 233 1 350 1 154 1 75 1
133 0 5 243 1 314 1 294 1 367 1 179 1
134 0 5 287 1 209 1 376 1 392 1 406 1
135 0 5 427 1 136 1 221 1 252 1 432 1
136 0 5 23 1 221 1 432 1 135 1 252 1
137 0 5 416 1 149 1 207 1 103 1 231 1
138 0 5 240 1 294 1 381 1 89 1 93 1
139 0 5 19 1 219 1 271 1 308 1 116 1
140 0 5 69 1 447 1 59 1 228 1 327 1
141 0 5 108 1 410 1 203 1 277 1 196 1
142 0 5 96 1 405 1 447 1 121 1 384 1
143 0 5 422 1 443 1 349 1 193 1 187 1
144 0 5 127 1 247 1 397 1 217 1 29 1
145 0 5 394 1 416 1 53 1 365 1 79 1
146 0 5 301 1 227 1 248 1 354 1 60 1
147 0 5 378 1 402 1 265 1 280 1 165 1
148 0 5 76 1 122 1 168 1 173 1 175 1
149 0 5 416 1 53 1 207 1 137 1 145 1
150 0 5 288 1 325 1 372 1 37 1 230 1
151 0 5 89 1 322 1 226 1 243 1 395 1
152 0 5 126 1 177 1 253 1 153 1 94 1
153 0 5 289 1 152 1 253 1 257 1 382 1
154 0 5 287 1 406 1 245 1 348 1 132 1
155 0 5 190 1 310 1 53 1 81 1 124 1
156 0 5 202 1 161 1 234 1 320 1 379 1
157 0 5 194 1 286 1 375 1 62 1 316 1
158 0 5 259 1 92 1 330 1 303 1 355 1
159 0 5 375 1 278 1 334 1 419 1 173 1
160 0 5 30 1 16 1 125 1 392 1 11 1
161 0 5 320 1 156 1 274 1 379 1 413 1
162 0 5 183 1 90 1 66 1 52 1 120 1
163 0 5 290 1 65 1 174 1 409 1 165 1
164 0 5 196 1 198 1 75 1 82 1 321 1
165 0 5 280 1 265 1 378 1 147 1 65 1
166 0 5 185 1 192 1 305 1 244 1 223 1
167 0 5 62 1 368 1 42 1 286 1 77 1
168 0 5 173 1 148 1 122 1 182 1 76 1
169 0 5 347 1 265 1 128 1 343 1 360 1
170 0 5 334 1 374 1 79 1 252 1 80 1
171 0 5 349 1 309 1 443 1 187 1 143 1
172 0 5 106 1 345 1 11 1 387 1 407 1
173 0 5 168 1 182 1 148 1 122 1 47 1
174 0 5 186 1 4 1 409 1 163 1 115 1
175 0 5 331 1 34 1 236 1 446 1 76 1
176 0 5 248 1 9 1 55 1 26 1 227 1
177 0 5 126 1 152 1 239 1 267 1 78 1
178 0 5 6 1 192 1 329 1 223 1 238 1
179 0 5 367 1 314 1 63 1 303 1 318 1
180 0 5 459 1 467 1 466 1 465 1 464 1
181 0 5 18 1 242 1 345 1 433 1 357 1
182 0 5 173 1 47 1 122 1 168 1 342 1
183 0 5 162 1 437 1 90 1 13 1 120 1
184 0 5 124 1 21 1 293 1 427 1 394 1
185 0 5 166 1 244 1 415 1 192 1 305 1
186 0 5 52 1 174 1 90 1 115 1 409 1
187 0 5 349 1 382 1 143 1 257 1 171 1
188 0 5 94 1 297 1 242 1 78 1 426 1
189 0 5 373 1 389 1 415 1 58 1 244 1
190 0 5 222 1 155 1 317 1 124 1 318 1
191 0 5 372 1 396 1 36 1 37 1 326 1
192 0 5 223 1 178 1 166 1 17 1 6 1
193 0 5 422 1 268 1 84 1 143 1 353 1
194 0 5 375 1 157 1 159 1 286 1 419 1
195 0 5 116 1 432 1 271 1 439 1 330 1
196 0 5 164 1 410 1 75 1 277 1 141 1
197 0 5 270 1 19 1 105 1 20 1 255 1
198 0 5 164 1 114 1 321 1 82 1 250 1
199 0 5 10 1 412 1 15 1 300 1 22 1
200 0 5 50 1 25 1 421 1 241 1 213 1
201 0 5 85 1 256 1 204 1 15 1 172 1
202 0 5 232 1 398 1 41 1 156 1 234 1
203 0 5 141 1 245 1 277 1 218 1 108 1
204 0 5 361 1 256 1 201 1 237 1 407 1
205 0 5 110 1 89 1 44 1 240 1 352 1
206 0 5 103 1 55 1 227 1 260 1 304 1
207 0 5 231 1 149 1 260 1 418 1 137 1
208 0 5 48 1 77 1 368 1 42 1 316 1
209 0 5 406 1 134 1 287 1 218 1 154 1
210 0 5 278 1 419 1 79 1 365 1 334 1
211 0 5 317 1 215 1 118 1 294 1 284 1
212 0 5 413 1 414 1 339 1 379 1 17 1
213 0 5 241 1 292 1 25 1 7 1 200 1
214 0 5 340 1 421 1 399 1 200 1 444 1
215 0 5 284 1 211 1 317 1 319 1 118 1
216 0 5 36 1 326 1 224 1 130 1 32 1
217 0 5 127 1 388 1 233 1 235 1 144 1
218 0 5 203 1 209 1 407 1 406 1 256 1
219 0 5 439 1 271 1 139 1 116 1 330 1
220 0 5 119 1 366 1 100 1 263 1 400 1
221 0 5 23 1 136 1 252 1 135 1 374 1
222 0 5 190 1 318 1 317 1 293 1 314 1
223 0 5 17 1 192 1 178 1 305 1 329 1
224 0 5 447 1 326 1 216 1 140 1 59 1
225 0 5 420 1 250 1 131 1 234 1 196 1
226 0 5 395 1 322 1 151 1 44 1 89 1
227 0 5 55 1 206 1 60 1 146 1 176 1
228 0 5 69 1 359 1 59 1 140 1 425 1
229 0 5 97 1 302 1 364 1 363 1 333 1
230 0 5 67 1 299 1 352 1 37 1 130 1
231 0 5 260 1 207 1 418 1 137 1 103 1
232 0 5 41 1 202 1 234 1 398 1 266 1
233 0 5 132 1 217 1 247 1 249 1 341 1
234 0 5 266 1 232 1 202 1 41 1 156 1
235 0 5 388 1 380 1 281 1 323 1 296 1
236 0 5 446 1 175 1 45 1 34 1 331 1
237 0 5 85 1 300 1 86 1 2 1 279 1
238 0 5 40 1 114 1 339 1 6 1 178 1
239 0 5 126 1 324 1 177 1 351 1 112 1
240 0 5 138 1 381 1 89 1 294 1 205 1
241 0 5 213 1 7 1 306 1 50 1 200 1
242 0 5 18 1 431 1 181 1 345 1 188 1
243 0 5 133 1 322 1 151 1 294 1 226 1
244 0 5 415 1 373 1 185 1 305 1 189 1
245 0 5 277 1 348 1 203 1 410 1 154 1
246 0 5 117 1 324 1 383 1 351 1 112 1
247 0 5 127 1 144 1 46 1 397 1 273 1
248 0 5 442 1 176 1 26 1 301 1 283 1
249 0 5 341 1 46 1 404 1 247 1 233 1
250 0 5 225 1 40 1 379 1 234 1 420 1
251 0 5 397 1 91 1 29 1 438 1 273 1
252 0 5 374 1 221 1 80 1 170 1 136 1
253 0 5 152 1 153 1 289 1 382 1 351 1
254 0 5 298 1 350 1 276 1 449 1 75 1
255 0 5 408 1 98 1 20 1 270 1 434 1
256 0 5 407 1 204 1 201 1 361 1 108 1
257 0 5 289 1 84 1 268 1 187 1 153 1
258 0 5 398 1 5 1 88 1 31 1 274 1
259 0 5 158 1 92 1 330 1 355 1 303 1
260 0 5 418 1 231 1 207 1 206 1 103 1
261 0 5 425 1 356 1 327 1 440 1 69 1
262 0 5 449 1 14 1 292 1 281 1 323 1
263 0 5 119 1 220 1 117 1 400 1 435 1
264 0 5 3 1 364 1 83 1 302 1 31 1
265 0 5 280 1 165 1 169 1 402 1 147 1
266 0 5 358 1 234 1 232 1 41 1 430 1
267 0 5 78 1 426 1 126 1 177 1 94 1
268 0 5 257 1 84 1 193 1 283 1 289 1
269 0 5 336 1 309 1 349 1 64 1 285 1
270 0 5 197 1 19 1 98 1 255 1 20 1
271 0 5 116 1 219 1 439 1 139 1 195 1
272 0 5 417 1 360 1 13 1 311 1 344 1
273 0 5 386 1 91 1 101 1 438 1 251 1
274 0 5 5 1 88 1 161 1 320 1 258 1
275 0 5 291 1 335 1 444 1 74 1 49 1
276 0 5 82 1 321 1 298 1 75 1 254 1
277 0 5 245 1 410 1 203 1 141 1 196 1
278 0 5 419 1 210 1 375 1 159 1 334 1
279 0 5 448 1 86 1 333 1 363 1 85 1
280 0 5 165 1 265 1 378 1 147 1 65 1
281 0 5 323 1 380 1 235 1 388 1 296 1
282 0 5 370 1 111 1 39 1 328 1 74 1
283 0 5 48 1 338 1 112 1 268 1 383 1
284 0 5 215 1 319 1 310 1 317 1 211 1
285 0 5 104 1 377 1 369 1 64 1 336 1
286 0 5 62 1 167 1 157 1 42 1 368 1
287 0 5 134 1 154 1 209 1 406 1 341 1
288 0 5 150 1 325 1 372 1 37 1 230 1
289 0 5 153 1 257 1 382 1 253 1 336 1
290 0 5 163 1 65 1 378 1 165 1 147 1
291 0 5 275 1 444 1 49 1 335 1 74 1
292 0 5 25 1 213 1 262 1 281 1 323 1
293 0 5 307 1 427 1 124 1 21 1 184 1
294 0 5 138 1 133 1 240 1 243 1 211 1
295 0 5 436 1 371 1 71 1 102 1 344 1
296 0 5 24 1 380 1 235 1 281 1 388 1
297 0 5 94 1 188 1 242 1 78 1 267 1
298 0 5 254 1 276 1 321 1 350 1 114 1
299 0 5 57 1 67 1 230 1 95 1 325 1
300 0 5 237 1 2 1 56 1 199 1 85 1
301 0 5 146 1 442 1 248 1 26 1 117 1
302 0 5 364 1 264 1 31 1 229 1 97 1
303 0 5 92 1 367 1 63 1 179 1 355 1
304 0 5 393 1 113 1 103 1 403 1 9 1
305 0 5 33 1 244 1 58 1 223 1 17 1
306 0 5 362 1 399 1 50 1 241 1 337 1
307 0 5 429 1 293 1 427 1 68 1 391 1
308 0 5 402 1 434 1 139 1 98 1 19 1
309 0 5 171 1 349 1 443 1 269 1 120 1
310 0 5 155 1 81 1 284 1 384 1 312 1
311 0 5 409 1 13 1 128 1 272 1 90 1
312 0 5 54 1 87 1 313 1 81 1 310 1
313 0 5 386 1 54 1 81 1 312 1 101 1
314 0 5 179 1 133 1 317 1 367 1 211 1
315 0 5 115 1 331 1 43 1 4 1 34 1
316 0 5 157 1 208 1 9 1 77 1 48 1
317 0 5 211 1 215 1 314 1 190 1 284 1
318 0 5 63 1 222 1 391 1 307 1 293 1
319 0 5 284 1 215 1 118 1 405 1 384 1
320 0 5 161 1 88 1 274 1 398 1 156 1
321 0 5 82 1 276 1 298 1 198 1 164 1
322 0 5 226 1 243 1 151 1 395 1 89 1
323 0 5 281 1 380 1 235 1 388 1 296 1
324 0 5 246 1 435 1 239 1 78 1 267 1
325 0 5 150 1 288 1 57 1 95 1 299 1
326 0 5 396 1 129 1 224 1 216 1 36 1
327 0 5 121 1 261 1 425 1 69 1 440 1
328 0 5 282 1 370 1 129 1 111 1 396 1
329 0 5 339 1 17 1 178 1 223 1 414 1
330 0 5 158 1 439 1 259 1 219 1 195 1
331 0 5 34 1 175 1 4 1 446 1 315 1
332 0 5 346 1 104 1 369 1 382 1 153 1
333 0 5 56 1 448 1 279 1 229 1 61 1
334 0 5 170 1 35 1 79 1 159 1 210 1
335 0 5 275 1 74 1 12 1 291 1 39 1
336 0 5 64 1 269 1 382 1 369 1 285 1
337 0 5 107 1 385 1 38 1 7 1 306 1
338 0 5 26 1 283 1 48 1 316 1 117 1
339 0 5 329 1 379 1 414 1 238 1 40 1
340 0 5 214 1 421 1 200 1 399 1 444 1
341 0 5 249 1 287 1 132 1 73 1 154 1
342 0 5 70 1 422 1 443 1 47 1 99 1
343 0 5 347 1 360 1 169 1 417 1 128 1
344 0 5 102 1 371 1 417 1 423 1 13 1
345 0 5 387 1 431 1 18 1 172 1 242 1
346 0 5 332 1 369 1 104 1 64 1 285 1
347 0 5 343 1 169 1 360 1 417 1 128 1
348 0 5 245 1 132 1 75 1 154 1 406 1
349 0 5 171 1 309 1 269 1 187 1 143 1
350 0 5 254 1 449 1 298 1 132 1 217 1
351 0 5 112 1 383 1 246 1 239 1 324 1
352 0 5 110 1 230 1 130 1 32 1 67 1
353 0 5 368 1 47 1 193 1 422 1 342 1
354 0 5 73 1 60 1 51 1 146 1 123 1
355 0 5 391 1 63 1 68 1 429 1 318 1
356 0 5 425 1 261 1 27 1 29 1 49 1
357 0 5 433 1 125 1 16 1 181 1 106 1
358 0 5 266 1 430 1 363 1 448 1 279 1
359 0 5 228 1 59 1 129 1 328 1 69 1
360 0 5 272 1 417 1 128 1 343 1 311 1
361 0 5 131 1 204 1 256 1 430 1 108 1
362 0 5 306 1 50 1 399 1 241 1 200 1
363 0 5 97 1 448 1 229 1 358 1 279 1
364 0 5 302 1 264 1 83 1 3 1 229 1
365 0 5 79 1 401 1 416 1 210 1 419 1
366 0 5 119 1 100 1 220 1 125 1 263 1
367 0 5 179 1 303 1 314 1 63 1 133 1
368 0 5 167 1 62 1 353 1 77 1 42 1
369 0 5 64 1 104 1 285 1 336 1 346 1
370 0 5 282 1 111 1 328 1 74 1 39 1
371 0 5 423 1 295 1 344 1 102 1 71 1
372 0 5 191 1 37 1 288 1 150 1 36 1
373 0 5 189 1 415 1 389 1 244 1 58 1
374 0 5 252 1 80 1 170 1 221 1 21 1
375 0 5 194 1 159 1 419 1 278 1 157 1
376 0 5 445 1 392 1 134 1 287 1 160 1
377 0 5 71 1 285 1 436 1 104 1 64 1
378 0 5 147 1 402 1 65 1 280 1 165 1
379 0 5 40 1 161 1 250 1 413 1 339 1
380 0 5 235 1 296 1 281 1 323 1 388 1
381 0 5 93 1 240 1 32 1 138 1 352 1
382 0 5 289 1 336 1 187 1 369 1 64 1
383 0 5 112 1 351 1 246 1 117 1 283 1
384 0 5 87 1 96 1 405 1 319 1 310 1
385 0 5 38 1 337 1 107 1 7 1 72 1
386 0 5 313 1 101 1 273 1 438 1 91 1
387 0 5 106 1 345 1 431 1 172 1 242 1
388 0 5 235 1 281 1 380 1 323 1 217 1
389 0 5 189 1 373 1 58 1 415 1 33 1
390 0 5 441 1 72 1 114 1 14 1 6 1
391 0 5 429 1 355 1 63 1 68 1 318 1
392 0 5 376 1 160 1 445 1 134 1 357 1
393 0 5 304 1 401 1 113 1 403 1 9 1
394 0 5 145 1 80 1 53 1 21 1 124 1
395 0 5 226 1 44 1 322 1 89 1 151 1
396 0 5 191 1 326 1 328 1 129 1 36 1
397 0 5 29 1 251 1 27 1 144 1 247 1
398 0 5 202 1 258 1 88 1 320 1 31 1
399 0 5 214 1 362 1 50 1 306 1 200 1
400 0 5 100 1 109 1 424 1 263 1 181 1
401 0 5 393 1 419 1 365 1 304 1 403 1
402 0 5 147 1 308 1 378 1 265 1 65 1
403 0 5 304 1 393 1 401 1 103 1 365 1
404 0 5 51 1 249 1 46 1 123 1 273 1
405 0 5 142 1 96 1 447 1 319 1 384 1
406 0 5 209 1 154 1 287 1 218 1 134 1
407 0 5 11 1 256 1 30 1 218 1 172 1
408 0 5 434 1 98 1 255 1 270 1 65 1
409 0 5 311 1 174 1 90 1 186 1 128 1
410 0 5 131 1 277 1 141 1 196 1 245 1
411 0 5 428 1 91 1 438 1 440 1 251 1
412 0 5 10 1 199 1 28 1 15 1 431 1
413 0 5 212 1 414 1 379 1 274 1 161 1
414 0 5 212 1 413 1 17 1 339 1 33 1
415 0 5 244 1 373 1 189 1 389 1 185 1
416 0 5 137 1 149 1 365 1 145 1 207 1
417 0 5 272 1 360 1 13 1 344 1 343 1
418 0 5 260 1 207 1 231 1 60 1 206 1
419 0 5 278 1 210 1 401 1 375 1 365 1
420 0 5 225 1 430 1 250 1 266 1 234 1
421 0 5 340 1 214 1 200 1 399 1 444 1
422 0 5 143 1 193 1 342 1 187 1 368 1
423 0 5 371 1 437 1 344 1 295 1 377 1
424 0 5 109 1 426 1 400 1 435 1 78 1
425 0 5 261 1 356 1 327 1 69 1 49 1
426 0 5 424 1 267 1 78 1 109 1 435 1
427 0 5 135 1 21 1 293 1 307 1 429 1
428 0 5 440 1 411 1 121 1 87 1 327 1
429 0 5 68 1 307 1 391 1 355 1 427 1
430 0 5 86 1 358 1 420 1 279 1 266 1
431 0 5 345 1 242 1 412 1 387 1 18 1
432 0 5 136 1 105 1 195 1 135 1 23 1
433 0 5 18 1 357 1 125 1 181 1 387 1
434 0 5 98 1 408 1 308 1 255 1 270 1
435 0 5 324 1 78 1 424 1 246 1 426 1
436 0 5 295 1 102 1 71 1 377 1 285 1
437 0 5 423 1 183 1 13 1 371 1 162 1
438 0 5 91 1 101 1 251 1 411 1 386 1
439 0 5 219 1 271 1 330 1 116 1 195 1
440 0 5 428 1 121 1 327 1 411 1 261 1
441 0 5 390 1 14 1 72 1 114 1 262 1
442 0 5 117 1 301 1 248 1 283 1 246 1
443 0 5 309 1 120 1 171 1 143 1 99 1
444 0 5 291 1 275 1 74 1 335 1 421 1
445 0 5 376 1 392 1 119 1 125 1 160 1
446 0 5 4 1 236 1 34 1 331 1 175 1
447 0 5 224 1 140 1 142 1 405 1 96 1
448 0 5 279 1 363 1 333 1 358 1 430 1
449 0 5 262 1 350 1 254 1 281 1 323 1
450 0 5 451 1 468 1 467 1 466 1 465 1
451 0 5 451 1 468 1 467 1 466 1 465 1
452 0 5 451 1 468 1 467 1 466 1 465 1
453 0 5 451 1 468 1 467 1 466 1 465 1
454 0 5 451 1 468 1 467 1 466 1 465 1
455 0 5 451 1 468 1 467 1 466 1 465 1
456 0 5 451 1 468 1 467 1 466 1 465 1
457 0 5 451 1 468 1 467 1 466 1 465 1
458 0 5 451 1 468 1 467 1 466 1 465 1
459 0 5 451 1 468 1 467 1 466 1 465 1
460 0 5 451 1 468 1 467 1 466 1 465 1
461 0 5 451 1 468 1 467 1 466 1 465 1
462 0 5 451 1 468 1 467 1 466 1 465 1
463 0 5 451 1 468 1 467 1 466 1 465 1
464 0 5 451 1 468 1 467 1 466 1 465 1
465 0 5 451 1 468 1 467 1 466 1 465 1
466 0 5 451 1 468 1 467 1 466 1 465 1
467 0 5 451 1 468 1 467 1 466 1 465 1
468 0 5 451 1 468 1 467 1 466 1 465 1
469 0 5 451 1 468 1 467 1 466 1 465 1
470 0 5 451 1 468 1 467 1 466 1 465 1
471 0 5 451 1 468 1 467 1 466 1 465 1
472 0 5 451 1 468 1 467 1 466 1 465 1
473 0 5 451 1 468 1 467 1 466 1 465 1
474 0 5 451 1 468 1 467 1 466 1 465 1
475 0 5 451 1 468 1 467 1 466 1 465 1
476 0 5 451 1 468 1 467 1 466 1 465 1
477 0 5 451 1 468 1 467 1 466 1 465 1
-1
EOF
